542 5
10 10 10 10 10 

0 0 0 0 0 0 4 2 54 106 118 
0 0 0 0 0 0 4 3 4 5 7 
8 1 1 1 1 1 4 16 13 12 8 
4 3 2 1 2 4 2 11 6 
3 1 2 2 3 1 1 6 
3 2 3 2 3 2 3 18 16 9 
7 6 3 3 3 1 2 18 9 
7 4 2 2 2 1 1 9 
7 4 4 2 3 3 1 10 
2 1 1 1 4 3 4 22 21 19 14 
4 1 2 3 2 3 4 21 19 18 14 
2 1 6 2 2 3 2 21 15 
5 2 2 4 2 1 2 18 17 
5 3 2 1 3 3 1 15 
4 1 2 4 2 4 1 17 
1 2 1 3 1 2 1 17 
7 3 4 4 2 1 4 30 28 24 20 
5 1 1 3 1 3 2 24 20 
4 2 3 2 1 3 3 28 24 23 
3 1 5 4 4 3 2 25 23 
4 1 2 3 4 2 1 24 
6 2 4 3 7 4 1 23 
5 2 1 3 2 1 1 26 
7 4 2 2 3 2 1 26 
1 3 3 3 3 3 1 26 
1 1 2 3 1 4 1 27 
7 4 3 3 1 2 1 29 
7 1 3 2 2 2 1 29 
9 4 1 4 3 3 3 35 33 31 
6 2 3 3 3 3 3 35 33 31 
5 2 2 1 4 2 1 32 
4 4 3 3 3 3 3 39 36 34 
3 6 3 1 2 3 2 36 34 
1 3 1 2 2 5 3 43 41 37 
6 2 3 1 1 2 2 41 36 
4 2 5 4 4 3 1 38 
5 3 1 3 1 3 1 38 
10 2 2 5 1 2 1 40 
2 2 6 2 2 1 1 41 
6 5 5 2 2 3 2 42 242 
5 3 2 1 3 7 1 42 
10 2 1 2 2 2 1 44 
3 2 4 3 3 1 1 44 
3 3 1 4 4 1 1 45 
3 2 1 1 2 1 2 49 46 
4 4 2 2 2 1 2 48 47 
2 3 3 3 4 4 2 52 50 
4 5 3 2 2 3 2 52 51 
6 3 1 3 4 2 1 50 
2 1 1 1 3 5 1 51 
4 2 1 3 2 2 1 53 
9 1 4 3 2 1 1 53 
0 0 0 0 0 0 1 542 
0 0 0 0 0 0 4 55 56 57 58 
6 1 1 1 1 1 4 66 61 60 59 
6 3 7 3 1 1 4 66 61 60 59 
2 3 3 5 1 1 2 61 59 
4 6 3 1 3 1 1 59 
5 1 1 2 4 2 3 64 63 62 
7 1 2 1 1 1 3 64 63 62 
10 1 2 2 5 1 2 68 63 
9 2 2 3 3 1 3 69 68 67 
7 1 2 1 3 3 1 65 
1 2 3 1 2 3 1 65 
7 2 3 3 4 1 3 74 69 67 
5 3 4 1 2 2 2 68 67 
8 1 2 3 2 4 2 71 70 
5 1 2 2 3 2 2 74 72 
9 2 3 3 4 4 1 70 
10 3 2 5 4 2 1 72 
3 5 2 1 2 3 1 72 
1 4 2 1 2 2 3 81 78 73 
10 3 4 2 2 1 3 77 76 75 
9 6 1 3 3 4 3 81 76 75 
10 3 2 3 2 2 1 79 
6 2 4 2 1 5 1 79 
3 1 1 4 1 2 1 79 
5 4 3 4 2 2 1 79 
3 2 2 2 1 7 2 80 503 
2 3 3 2 3 4 1 82 
5 3 1 1 1 2 1 82 
7 2 3 5 2 1 2 85 83 
5 2 4 2 3 3 2 88 84 
7 3 4 1 5 2 2 87 86 
8 3 2 2 3 3 1 86 
5 1 4 5 5 3 2 90 89 
10 3 2 3 3 5 1 89 
8 3 1 2 1 3 1 89 
8 2 3 3 2 1 3 95 92 91 
7 2 1 3 4 2 3 95 92 91 
1 2 2 3 1 3 1 93 
4 3 1 1 2 3 1 93 
2 2 3 3 3 2 1 94 
8 3 2 5 2 1 1 96 
5 4 1 3 1 6 1 96 
10 2 3 1 1 1 1 97 
6 2 4 4 3 2 2 100 98 
5 3 4 2 2 1 1 99 
8 2 3 2 6 2 2 102 101 
2 2 3 1 3 5 1 101 
10 2 3 2 2 4 2 104 103 
6 1 1 3 3 1 2 104 103 
3 4 2 5 2 4 1 105 
2 3 2 2 3 3 1 105 
0 0 0 0 0 0 1 542 
0 0 0 0 0 0 5 107 111 114 115 116 
2 0 1 0 0 0 1 108 
6 0 3 0 0 0 1 109 
5 0 3 0 0 0 2 113 110 
9 0 4 0 0 0 1 112 
8 0 2 0 0 0 1 112 
1 0 2 0 0 0 1 117 
1 0 2 0 0 0 2 117 288 
5 0 5 0 0 0 1 117 
3 0 1 0 0 0 1 117 
1 0 2 0 0 0 1 117 
0 0 0 0 0 0 4 170 212 254 266 
0 0 0 0 0 0 5 119 120 121 123 130 
6 1 1 1 1 1 4 134 132 128 124 
6 2 2 1 2 3 4 134 132 127 125 
2 1 1 5 2 2 2 125 122 
5 3 3 2 2 2 3 134 132 126 
7 2 2 3 1 2 2 134 125 
2 5 4 3 5 2 1 125 
9 4 2 2 3 3 1 126 
10 4 3 3 1 1 5 138 137 136 129 520 
8 4 1 2 2 2 3 138 137 131 
7 1 5 4 2 3 2 137 133 
10 2 4 2 2 4 1 131 
6 2 1 2 1 4 3 145 144 134 
5 2 2 3 2 4 1 133 
3 1 2 3 1 4 1 133 
8 4 3 4 2 1 4 145 144 139 135 
6 2 2 2 3 1 2 139 135 
7 3 3 2 3 2 2 142 140 
5 1 1 1 2 2 2 142 141 
6 3 4 2 2 4 1 139 
10 2 4 2 3 2 1 139 
7 2 4 3 4 3 1 141 
5 3 3 2 1 2 1 141 
10 2 2 3 3 5 1 143 
6 2 3 1 2 2 1 143 
5 2 1 2 3 3 2 151 146 
9 4 1 1 4 2 3 151 149 147 
1 1 1 3 2 2 1 146 
1 3 3 1 1 1 2 149 147 
3 3 3 3 2 3 1 148 
1 2 1 1 3 1 3 155 152 150 
3 6 4 5 2 4 3 157 152 150 
6 1 3 6 1 2 2 160 153 
9 3 2 2 2 2 2 157 152 
8 5 5 1 3 3 1 154 
6 4 4 1 3 2 1 154 
8 4 2 3 2 3 1 156 
5 1 2 3 5 1 1 157 
4 1 2 1 6 2 1 158 
7 2 1 2 2 3 1 158 
1 3 4 1 3 6 1 159 
2 1 2 2 5 2 1 161 
10 2 2 3 4 3 1 161 
2 5 2 2 1 2 3 166 164 162 
8 2 2 4 1 3 1 163 
6 3 1 2 4 5 2 168 165 
4 2 4 3 1 2 1 165 
2 2 4 5 2 1 1 167 
10 2 1 3 6 2 1 167 
6 2 3 4 2 2 1 169 
5 1 3 3 3 2 1 169 
0 0 0 0 0 0 1 542 
0 0 0 0 0 0 2 171 174 
4 1 1 0 1 1 2 210 172 
9 1 2 0 2 3 2 176 173 
1 1 3 0 2 1 4 199 183 180 175 
3 1 1 0 3 3 2 180 178 
1 3 4 0 1 3 1 177 
2 4 3 0 2 2 4 199 198 181 179 
3 3 2 0 4 1 2 181 178 
5 4 2 0 3 1 2 198 179 
1 2 1 0 4 2 3 201 195 182 
6 2 2 0 4 3 2 201 181 
9 4 2 0 3 6 3 195 187 184 
4 3 3 0 3 2 2 187 184 
10 3 6 0 2 3 3 201 195 185 
2 2 4 0 2 3 2 209 185 
7 5 4 0 1 3 2 206 186 
8 4 1 0 2 2 4 208 207 194 188 
7 3 1 0 2 2 4 206 205 194 189 
2 2 5 0 2 3 2 205 189 
9 1 2 0 2 2 2 197 190 
6 1 3 0 2 5 1 191 
8 2 1 0 1 2 2 204 192 
7 1 3 0 3 1 1 193 
2 3 6 0 3 4 2 203 196 
8 2 1 0 6 1 1 197 
1 3 1 0 1 4 1 196 
10 1 1 0 2 2 1 200 
7 2 1 0 3 4 1 200 
10 2 1 0 3 2 1 201 
5 4 2 0 4 1 1 201 
6 2 2 0 1 2 1 202 
10 3 4 0 4 4 1 203 
9 3 2 0 1 3 1 211 
8 1 3 0 3 2 1 211 
2 6 4 0 3 2 1 211 
9 4 2 0 2 2 1 211 
4 1 5 0 3 3 1 211 
1 3 1 0 1 3 1 211 
6 2 3 0 2 2 1 211 
1 2 2 0 3 2 1 211 
9 3 3 0 4 3 1 211 
0 0 0 0 0 0 1 542 
0 0 0 0 0 0 2 213 215 
6 1 1 1 1 0 1 214 
7 1 2 1 4 0 2 217 216 
4 2 1 2 1 0 1 216 
9 1 2 2 3 0 4 228 222 220 219 
8 3 1 1 1 0 3 222 220 218 
9 3 3 1 3 0 1 219 
9 5 1 2 3 0 3 226 224 221 
4 2 2 2 2 0 3 232 226 225 
6 3 4 4 2 0 2 232 223 
5 4 1 2 5 0 2 226 225 
3 3 1 2 2 0 1 225 
7 3 4 3 5 0 1 225 
5 3 4 4 4 0 3 237 234 227 
2 4 2 1 1 0 3 237 234 227 
8 1 2 2 3 0 2 231 229 
8 1 2 1 4 0 3 236 235 232 
4 2 4 1 2 0 1 230 
6 3 2 1 2 0 4 245 240 236 233 
2 1 3 5 4 0 2 240 233 
2 2 2 2 1 0 3 245 239 237 
9 1 1 3 3 0 1 235 
10 6 5 1 2 0 3 245 243 238 
8 4 3 6 3 0 2 241 238 
9 2 3 3 4 0 3 247 243 242 
7 2 2 2 3 0 2 242 240 
6 2 4 1 1 0 1 239 
9 2 2 2 1 0 2 247 242 
9 2 2 5 2 0 1 243 
9 2 5 2 2 0 1 243 
10 2 2 7 1 0 2 252 246 
10 1 3 2 1 0 1 244 
1 1 2 5 3 0 3 252 251 248 
8 2 4 4 3 0 3 252 251 249 
1 1 2 4 1 0 2 251 248 
5 4 1 3 2 0 2 252 251 
7 4 3 1 1 0 1 249 
9 5 2 2 2 0 1 250 
1 5 6 3 4 0 1 253 
5 1 2 2 5 0 1 253 
10 3 2 2 3 0 1 253 
0 0 0 0 0 0 1 542 
0 0 0 0 0 0 3 255 256 257 
5 1 0 0 0 0 3 264 260 258 
8 2 0 0 0 0 2 264 258 
3 4 0 0 0 0 1 258 
9 2 0 0 0 0 2 262 259 
6 4 0 0 0 0 1 261 
8 3 0 0 0 0 1 261 
9 3 0 0 0 0 1 263 
8 2 0 0 0 0 1 263 
10 2 0 0 0 0 1 265 
7 2 0 0 0 0 1 265 
0 0 0 0 0 0 4 308 340 352 384 
0 0 0 0 0 0 2 267 270 
5 1 1 0 1 1 1 268 
10 1 3 0 3 2 3 300 272 269 
9 3 2 0 2 4 4 292 278 276 271 
5 3 2 0 1 3 2 276 274 
10 2 3 0 1 3 1 273 
9 4 2 0 3 2 4 295 292 277 275 
4 4 3 0 2 2 2 277 274 
7 3 2 0 1 4 2 295 275 
10 2 1 0 4 1 3 298 291 279 
1 4 4 0 1 2 2 298 277 
9 4 2 0 3 4 3 291 283 280 
1 2 4 0 2 2 4 298 291 283 281 
1 2 2 0 2 2 2 283 280 
7 3 5 0 1 3 2 299 281 
4 3 4 0 2 1 2 297 282 
9 2 1 0 4 1 4 306 305 290 284 
4 1 2 0 2 2 4 304 297 290 285 
3 3 1 0 2 2 2 304 285 
4 1 2 0 2 5 2 294 286 
7 7 2 0 2 5 1 287 
2 3 2 0 6 2 2 303 288 
6 1 3 0 5 3 1 289 
3 1 1 0 1 2 2 302 293 
3 3 3 0 3 4 2 303 294 
7 1 1 0 3 1 2 303 293 
10 4 2 0 5 2 2 301 298 
9 2 3 0 2 2 1 296 
7 2 3 0 3 2 1 296 
5 1 2 0 3 2 1 298 
7 2 2 0 2 2 1 301 
2 5 3 0 1 5 1 303 
5 2 2 0 3 3 1 302 
7 1 3 0 3 5 1 301 
10 5 3 0 3 2 1 301 
4 2 3 0 1 2 1 307 
5 2 2 0 1 5 1 307 
6 2 2 0 3 1 1 307 
10 2 6 0 4 1 1 307 
2 3 3 0 2 1 1 307 
2 1 3 0 5 2 1 307 
0 0 0 0 0 0 1 542 
0 0 0 0 0 0 3 309 310 338 
8 0 1 0 1 1 2 337 311 
1 0 2 0 1 5 3 337 321 312 
6 0 1 0 2 2 2 321 312 
2 0 1 0 5 2 1 313 
4 0 3 0 1 2 3 336 335 314 
7 0 2 0 1 3 1 315 
3 0 3 0 2 1 2 334 316 
4 0 2 0 1 2 3 333 332 317 
10 0 1 0 5 5 1 318 
6 0 2 0 4 3 1 319 
10 0 2 0 3 3 2 331 320 
3 0 2 0 3 1 1 322 
4 0 5 0 3 6 4 331 326 325 324 
1 0 3 0 1 1 3 329 325 323 
4 0 4 0 1 1 3 330 327 324 
8 0 6 0 4 5 1 328 
7 0 2 0 1 2 1 327 
1 0 3 0 2 4 1 329 
7 0 2 0 2 1 1 339 
8 0 3 0 2 2 1 339 
5 0 1 0 2 2 1 339 
8 0 3 0 2 3 1 339 
9 0 1 0 5 1 1 339 
4 0 2 0 2 3 1 339 
2 0 3 0 4 3 1 339 
10 0 5 0 6 3 1 339 
6 0 2 0 3 3 1 339 
6 0 3 0 2 1 1 339 
7 0 2 0 3 2 1 339 
9 0 3 0 1 2 1 339 
0 0 0 0 0 0 1 542 
0 0 0 0 0 0 2 341 343 
2 0 0 0 0 1 1 342 
6 0 0 0 0 2 4 348 346 345 344 
2 0 0 0 0 4 3 348 345 344 
5 0 0 0 0 1 2 349 347 
5 0 0 0 0 4 2 349 347 
9 0 0 0 0 1 2 349 347 
6 0 0 0 0 3 1 350 
10 0 0 0 0 3 1 349 
2 0 0 0 0 4 1 351 
7 0 0 0 0 2 1 351 
0 0 0 0 0 0 4 416 438 460 472 
0 0 0 0 0 0 3 353 354 382 
7 0 1 0 1 1 2 381 355 
2 0 2 0 2 3 3 381 380 356 
10 0 1 0 1 3 2 367 356 
1 0 2 0 2 1 1 357 
8 0 2 0 3 2 3 379 378 358 
6 0 1 0 2 3 1 359 
3 0 3 0 4 2 3 377 376 360 
2 0 3 0 1 5 2 375 361 
5 0 4 0 2 3 1 362 
4 0 3 0 3 2 1 363 
3 0 3 0 2 2 2 374 364 
6 0 2 0 6 1 1 365 
2 0 1 0 3 2 3 373 369 366 
3 0 2 0 2 3 3 372 370 368 
1 0 2 0 2 2 2 380 374 
10 0 3 0 5 4 1 371 
7 0 3 0 6 2 1 370 
10 0 2 0 2 2 1 383 
5 0 1 0 1 5 1 383 
10 0 4 0 4 2 1 383 
4 0 1 0 3 3 1 383 
9 0 6 0 3 1 1 383 
10 0 5 0 2 3 1 383 
2 0 3 0 2 1 1 383 
8 0 2 0 2 2 1 383 
4 0 4 0 2 2 1 383 
6 0 2 0 1 2 1 383 
1 0 2 0 2 4 1 383 
8 0 2 0 2 4 1 383 
6 0 3 0 2 3 1 383 
0 0 0 0 0 0 1 542 
0 0 0 0 0 0 3 385 386 394 
4 1 0 1 0 1 2 396 387 
5 4 0 1 0 2 2 396 387 
4 1 0 4 0 1 2 391 388 
2 2 0 2 0 1 2 393 389 
2 2 0 2 0 3 2 403 390 
5 3 0 1 0 2 2 400 392 
1 4 0 4 0 4 1 393 
10 3 0 1 0 2 1 395 
7 2 0 2 0 3 1 395 
8 4 0 3 0 5 4 409 403 402 398 
4 3 0 4 0 3 3 409 402 397 
9 2 0 5 0 6 3 406 403 399 
6 1 0 3 0 2 1 398 
4 2 0 2 0 3 2 406 399 
9 1 0 1 0 1 1 401 
6 2 0 2 0 2 1 401 
3 1 0 1 0 4 2 414 404 
5 2 0 2 0 2 2 414 404 
2 3 0 1 0 3 2 414 404 
9 2 0 2 0 3 2 408 405 
10 2 0 2 0 2 4 413 412 410 407 
9 6 0 3 0 1 2 410 407 
1 2 0 1 0 1 1 411 
10 4 0 2 0 2 1 410 
3 1 0 2 0 5 1 414 
2 1 0 4 0 3 1 415 
5 3 0 4 0 1 1 415 
5 3 0 3 0 2 1 415 
3 3 0 4 0 2 1 415 
8 5 0 6 0 3 1 415 
0 0 0 0 0 0 1 542 
0 0 0 0 0 0 2 417 418 
5 0 0 1 1 0 2 421 420 
1 0 0 4 1 0 2 423 419 
5 0 0 1 4 0 1 420 
9 0 0 3 1 0 3 431 426 422 
7 0 0 1 4 0 3 426 424 423 
5 0 0 2 3 0 1 424 
5 0 0 2 2 0 3 434 428 427 
9 0 0 2 3 0 1 425 
10 0 0 2 3 0 3 434 433 427 
3 0 0 3 2 0 3 434 433 427 
4 0 0 3 1 0 2 430 429 
9 0 0 3 4 0 2 433 432 
1 0 0 2 5 0 1 432 
7 0 0 4 3 0 1 432 
4 0 0 2 1 0 1 433 
9 0 0 4 1 0 1 435 
4 0 0 3 2 0 1 435 
3 0 0 3 4 0 1 436 
5 0 0 2 2 0 1 437 
7 0 0 3 3 0 1 437 
0 0 0 0 0 0 1 542 
0 0 0 0 0 0 1 439 
5 1 0 0 0 1 2 442 440 
8 2 0 0 0 3 1 441 
2 5 0 0 0 2 2 447 443 
2 3 0 0 0 3 2 447 443 
4 2 0 0 0 2 1 444 
3 1 0 0 0 3 5 458 457 451 450 445 
3 1 0 0 0 1 3 456 455 446 
9 3 0 0 0 1 2 453 448 
9 2 0 0 0 3 4 455 454 453 452 
1 1 0 0 0 1 2 454 449 
5 2 0 0 0 2 1 452 
10 4 0 0 0 2 1 453 
10 2 0 0 0 4 1 452 
9 3 0 0 0 3 1 459 
6 5 0 0 0 3 1 459 
9 1 0 0 0 2 1 459 
7 2 0 0 0 4 1 459 
10 5 0 0 0 4 1 459 
7 3 0 0 0 4 1 459 
1 2 0 0 0 2 1 459 
0 0 0 0 0 0 1 542 
0 0 0 0 0 0 5 461 463 466 469 470 
7 0 1 0 0 0 1 462 
10 0 3 0 0 0 2 468 464 
1 0 1 0 0 0 1 464 
10 0 2 0 0 0 1 465 
5 0 3 0 0 0 1 467 
6 0 4 0 0 0 1 468 
5 0 1 0 0 0 1 471 
3 0 4 0 0 0 1 471 
9 0 4 0 0 0 1 471 
7 0 2 0 0 0 1 471 
0 0 0 0 0 0 4 494 506 518 530 
0 0 0 0 0 0 6 473 488 489 490 491 492 
1 0 1 0 0 1 3 487 486 474 
7 0 2 0 0 2 2 485 475 
4 0 3 0 0 3 2 484 476 
8 0 2 0 0 3 1 477 
3 0 3 0 0 2 2 483 478 
1 0 1 0 0 2 1 479 
8 0 2 0 0 3 1 480 
8 0 3 0 0 3 1 481 
6 0 2 0 0 2 1 482 
8 0 3 0 0 3 1 493 
5 0 2 0 0 2 1 493 
10 0 3 0 0 3 1 493 
6 0 4 0 0 1 1 493 
4 0 2 0 0 1 1 493 
8 0 3 0 0 1 1 493 
5 0 3 0 0 5 1 493 
1 0 3 0 0 4 1 493 
5 0 2 0 0 2 1 493 
1 0 2 0 0 4 1 493 
10 0 4 0 0 3 1 493 
0 0 0 0 0 0 1 542 
0 0 0 0 0 0 1 495 
4 0 0 0 0 1 3 498 497 496 
5 0 0 0 0 1 4 504 503 501 499 
3 0 0 0 0 2 2 504 499 
7 0 0 0 0 2 2 503 499 
9 0 0 0 0 6 1 500 
7 0 0 0 0 1 1 502 
8 0 0 0 0 3 1 502 
3 0 0 0 0 3 1 505 
10 0 0 0 0 2 1 505 
1 0 0 0 0 4 1 505 
0 0 0 0 0 0 1 542 
0 0 0 0 0 0 2 507 509 
2 1 0 0 0 0 3 513 512 508 
6 2 0 0 0 0 3 516 514 510 
6 4 0 0 0 0 2 512 510 
8 2 0 0 0 0 1 511 
5 4 0 0 0 0 1 515 
7 3 0 0 0 0 1 514 
7 4 0 0 0 0 1 514 
8 2 0 0 0 0 1 517 
4 1 0 0 0 0 1 517 
1 2 0 0 0 0 1 517 
0 0 0 0 0 0 1 542 
0 0 0 0 0 0 2 519 528 
2 0 1 0 0 0 3 527 526 520 
9 0 2 0 0 0 1 521 
5 0 3 0 0 0 3 525 524 522 
8 0 1 0 0 0 1 523 
7 0 3 0 0 0 1 529 
5 0 3 0 0 0 1 529 
3 0 3 0 0 0 1 529 
4 0 2 0 0 0 1 529 
5 0 2 0 0 0 1 529 
10 0 5 0 0 0 1 529 
0 0 0 0 0 0 1 542 
0 0 0 0 0 0 4 531 534 539 540 
7 0 0 1 0 0 1 532 
10 0 0 1 0 0 2 537 533 
8 0 0 3 0 0 2 538 535 
5 0 0 4 0 0 2 537 535 
8 0 0 2 0 0 1 536 
8 0 0 4 0 0 1 541 
6 0 0 3 0 0 1 541 
8 0 0 3 0 0 1 541 
6 0 0 2 0 0 1 541 
3 0 0 2 0 0 1 541 
0 0 0 0 0 0 1 542 
0 0 0 0 0 0 0 
